<?xml version = "1.0" encoding="UTF-8" standalone="yes"?>
<CPLEXSolution version="1.2">
 <header
   problemName="IloCplex"
   solutionName="p0"
   solutionIndex="-1"
   objectiveValue="-5033689088"
   solutionTypeValue="3"
   solutionTypeString="primal"
   solutionStatusValue="127"
   solutionStatusString="integer feasible solution"
   solutionMethodString="mip"
   primalFeasible="0"
   dualFeasible="0"
   writeLevel="3"/>
 <quality
   epInt="1.0000000000000001e-05"
   epRHS="9.9999999999999995e-07"
   maxIntInfeas="0"
   maxPrimalInfeas="0"
   maxX="1"
   maxSlack="1"/>
 <variables>
  <variable name="w18_12" index="282" value="1"/>
  <variable name="w18_13" index="283" value="1"/>
  <variable name="w19_12" index="297" value="1"/>
  <variable name="w19_13" index="298" value="1"/>
  <variable name="k18" index="318" value="1"/>
  <variable name="k19" index="319" value="1"/>
  <variable name="x0_55" index="375" value="1"/>
  <variable name="x1_34" index="504" value="1"/>
  <variable name="x2_14" index="634" value="1"/>
  <variable name="x3_80" index="850" value="1"/>
  <variable name="x4_38" index="958" value="1"/>
  <variable name="x5_135" index="1205" value="1"/>
  <variable name="x6_31" index="1251" value="1"/>
  <variable name="x7_93" index="1463" value="1"/>
  <variable name="x8_83" index="1603" value="1"/>
  <variable name="x9_67" index="1737" value="1"/>
  <variable name="x10_8" index="1828" value="1"/>
  <variable name="x11_61" index="2031" value="1"/>
  <variable name="x12_71" index="2191" value="1"/>
  <variable name="x13_87" index="2357" value="1"/>
  <variable name="x14_132" index="2552" value="1"/>
  <variable name="x15_53" index="2623" value="1"/>
  <variable name="x16_2" index="2722" value="1"/>
  <variable name="x17_74" index="2944" value="1"/>
  <variable name="x18_65" index="3085" value="1"/>
  <variable name="x19_43" index="3213" value="1"/>
  <variable name="x20_42" index="3362" value="1"/>
  <variable name="x21_129" index="3599" value="1"/>
  <variable name="x22_0" index="3620" value="1"/>
  <variable name="x23_144" index="3914" value="1"/>
  <variable name="x24_146" index="4066" value="1"/>
  <variable name="x25_97" index="4167" value="1"/>
  <variable name="x26_91" index="4311" value="1"/>
  <variable name="x27_35" index="4405" value="1"/>
  <variable name="x28_133" index="4653" value="1"/>
  <variable name="x29_56" index="4726" value="1"/>
  <variable name="x30_64" index="4884" value="1"/>
  <variable name="x31_148" index="5118" value="1"/>
  <variable name="x32_11" index="5131" value="1"/>
  <variable name="x33_143" index="5413" value="1"/>
  <variable name="x34_125" index="5545" value="1"/>
  <variable name="x35_130" index="5700" value="1"/>
  <variable name="x36_98" index="5818" value="1"/>
  <variable name="x37_28" index="5898" value="1"/>
  <variable name="x38_52" index="6072" value="1"/>
  <variable name="x39_140" index="6310" value="1"/>
  <variable name="x40_127" index="6447" value="1"/>
  <variable name="x41_17" index="6487" value="1"/>
  <variable name="x42_138" index="6758" value="1"/>
  <variable name="x43_84" index="6854" value="1"/>
  <variable name="x44_58" index="6978" value="1"/>
  <variable name="x45_141" index="7211" value="1"/>
  <variable name="x46_90" index="7310" value="1"/>
  <variable name="x47_131" index="7501" value="1"/>
  <variable name="x48_12" index="7532" value="1"/>
  <variable name="x49_79" index="7749" value="1"/>
  <variable name="x50_99" index="7919" value="1"/>
  <variable name="x51_112" index="8082" value="1"/>
  <variable name="x52_147" index="8267" value="1"/>
  <variable name="x53_115" index="8385" value="1"/>
  <variable name="x54_68" index="8488" value="1"/>
  <variable name="x55_117" index="8687" value="1"/>
  <variable name="x56_57" index="8777" value="1"/>
  <variable name="x57_23" index="8893" value="1"/>
  <variable name="x58_110" index="9130" value="1"/>
  <variable name="x59_134" index="9304" value="1"/>
  <variable name="x60_78" index="9398" value="1"/>
  <variable name="x61_116" index="9586" value="1"/>
  <variable name="x62_44" index="9664" value="1"/>
  <variable name="x63_21" index="9791" value="1"/>
  <variable name="x64_72" index="9992" value="1"/>
  <variable name="x65_15" index="10085" value="1"/>
  <variable name="x66_3" index="10223" value="1"/>
  <variable name="x67_36" index="10406" value="1"/>
  <variable name="x68_124" index="10644" value="1"/>
  <variable name="x69_136" index="10806" value="1"/>
  <variable name="x70_89" index="10909" value="1"/>
  <variable name="x71_118" index="11088" value="1"/>
  <variable name="x72_88" index="11208" value="1"/>
  <variable name="x73_101" index="11371" value="1"/>
  <variable name="x74_81" index="11501" value="1"/>
  <variable name="x75_69" index="11639" value="1"/>
  <variable name="x76_85" index="11805" value="1"/>
  <variable name="x77_39" index="11909" value="1"/>
  <variable name="x78_100" index="12120" value="1"/>
  <variable name="x79_59" index="12229" value="1"/>
  <variable name="x80_106" index="12426" value="1"/>
  <variable name="x81_114" index="12584" value="1"/>
  <variable name="x82_37" index="12657" value="1"/>
  <variable name="x83_62" index="12832" value="1"/>
  <variable name="x84_70" index="12990" value="1"/>
  <variable name="x85_94" index="13164" value="1"/>
  <variable name="x86_102" index="13322" value="1"/>
  <variable name="x87_40" index="13410" value="1"/>
  <variable name="x88_1" index="13521" value="1"/>
  <variable name="x89_86" index="13756" value="1"/>
  <variable name="x90_66" index="13886" value="1"/>
  <variable name="x91_73" index="14043" value="1"/>
  <variable name="x92_5" index="14125" value="1"/>
  <variable name="x93_13" index="14283" value="1"/>
  <variable name="x94_149" index="14569" value="1"/>
  <variable name="x95_126" index="14696" value="1"/>
  <variable name="x96_105" index="14825" value="1"/>
  <variable name="x97_128" index="14998" value="1"/>
  <variable name="x98_82" index="15102" value="1"/>
  <variable name="x99_142" index="15312" value="1"/>
  <variable name="x100_41" index="15361" value="1"/>
  <variable name="x101_123" index="15593" value="1"/>
  <variable name="x102_76" index="15696" value="1"/>
  <variable name="x103_108" index="15878" value="1"/>
  <variable name="x104_27" index="15947" value="1"/>
  <variable name="x105_63" index="16133" value="1"/>
  <variable name="x106_111" index="16331" value="1"/>
  <variable name="x107_9" index="16379" value="1"/>
  <variable name="x108_137" index="16657" value="1"/>
  <variable name="x109_32" index="16702" value="1"/>
  <variable name="x110_6" index="16826" value="1"/>
  <variable name="x111_95" index="17065" value="1"/>
  <variable name="x112_46" index="17166" value="1"/>
  <variable name="x113_107" index="17377" value="1"/>
  <variable name="x114_50" index="17470" value="1"/>
  <variable name="x115_113" index="17683" value="1"/>
  <variable name="x116_4" index="17724" value="1"/>
  <variable name="x117_54" index="17924" value="1"/>
  <variable name="x118_145" index="18165" value="1"/>
  <variable name="x119_60" index="18230" value="1"/>
  <variable name="x120_33" index="18353" value="1"/>
  <variable name="x121_96" index="18566" value="1"/>
  <variable name="x122_92" index="18712" value="1"/>
  <variable name="x123_45" index="18815" value="1"/>
  <variable name="x124_120" index="19040" value="1"/>
  <variable name="x125_77" index="19147" value="1"/>
  <variable name="x126_51" index="19271" value="1"/>
  <variable name="x127_24" index="19394" value="1"/>
  <variable name="x128_119" index="19639" value="1"/>
  <variable name="x129_75" index="19745" value="1"/>
  <variable name="x130_121" index="19941" value="1"/>
  <variable name="x131_104" index="20074" value="1"/>
  <variable name="x132_29" index="20149" value="1"/>
  <variable name="x133_47" index="20317" value="1"/>
  <variable name="x134_26" index="20446" value="1"/>
  <variable name="x135_49" index="20619" value="1"/>
  <variable name="x136_139" index="20859" value="1"/>
  <variable name="x137_30" index="20900" value="1"/>
  <variable name="x138_18" index="21038" value="1"/>
  <variable name="x139_16" index="21186" value="1"/>
  <variable name="x140_122" index="21442" value="1"/>
  <variable name="x141_103" index="21573" value="1"/>
  <variable name="x142_20" index="21640" value="1"/>
  <variable name="x143_19" index="21789" value="1"/>
  <variable name="x144_22" index="21942" value="1"/>
  <variable name="x145_109" index="22179" value="1"/>
  <variable name="x146_10" index="22230" value="1"/>
  <variable name="x147_48" index="22418" value="1"/>
  <variable name="x148_25" index="22545" value="1"/>
  <variable name="x149_7" index="22677" value="1"/>
  <variable name="u12" index="22832" value="1"/>
  <variable name="u13" index="22833" value="1"/>
 </variables>
</CPLEXSolution>
